40 28
21 582
24 582
4 860
17 700
7 784
20 884
19 613
1 850
1 253
20 900
25 933
1 159
10 416
11 343
27 853
26 25
4 371
25 302
9 517
26 699
7 413
9 204
16 294
22 281
8 501
15 188
2 709
4 873
23 279
12 836
4 644
10 835
18 664
19 547
18 896
25 222
23 961
5 870
21 593
14 997
